/*********************************************
 * OPL 12.6.0.0 Data
 * Author: Adrian Rodriguez Bazaga, Pau Rodriguez Esmerats
 * Creation Date: 30/11/2017 at 19:59:13
 *********************************************/

nNurses=1073;
maxConsec=2;
maxPresence=7;
maxHours=5;
minHours=1;
demand= [235 230 334 344 230 334 344 242 235 136 33 39 44 53 53 41 37 26 20 14 177 350 182 283  ];
